n = 23;
lu = [|38, 453
      |-127, 56
      |-396, -378
      |-8, 153
      |-12, 233
      |-154, 296
      |-38, -22
      |-383, 476
      |-368, 341
      |-422, 326
      |187, 371
      |-505, 450
      |-248, -11
      |-64, 162
      |-327, -241
      |89, 273
      |-453, -356
      |-181, 412
      |-219, 13
      |-425, -175
      |-499, 396
      |-220, 180
      |-396, 322|];
